Version identifier: 12.10.0.0 | 2019-11-26 | 843d4de
CPXPARAM_WorkMem                                 28672
Tried aggregator 2 times.
MIP Presolve modified 44 coefficients.
Aggregator did 20 substitutions.
Reduced MIP has 94 rows, 120 columns, and 448 nonzeros.
Reduced MIP has 120 binaries, 0 generals, 0 SOSs, and 0 indicators.
Presolve time = 0,00 sec. (0,59 ticks)
Found incumbent of value 80,000000 after 0,00 sec. (0,96 ticks)
Probing time = 0,00 sec. (0,14 ticks)
Tried aggregator 1 time.
Detecting symmetries...
MIP Presolve eliminated 12 rows and 0 columns.
MIP Presolve added 24 rows and 0 columns.
Reduced MIP has 106 rows, 120 columns, and 460 nonzeros.
Reduced MIP has 120 binaries, 0 generals, 0 SOSs, and 0 indicators.
Presolve time = 0,00 sec. (0,55 ticks)
Probing time = 0,00 sec. (0,14 ticks)
Clique table members: 298.
MIP emphasis: balance optimality and feasibility.
MIP search method: dynamic search.
Parallel mode: deterministic, using up to 16 threads.
Root relaxation solution time = 0,00 sec. (0,52 ticks)

        Nodes                                         Cuts/
   Node  Left     Objective  IInf  Best Integer    Best Bound    ItCnt     Gap

*     0+    0                           80,0000        0,0000           100,00%
*     0+    0                           52,0000        0,0000           100,00%
*     0+    0                           51,0000        0,0000           100,00%
*     0+    0                           48,0000        0,0000           100,00%
      0     0       25,0000    75       48,0000       25,0000       79   47,92%
      0     0       25,0000    75       48,0000       Cuts: 7       91   47,92%
*     0+    0                           47,0000       25,0000            46,81%
      0     0       25,0000    75       47,0000      Cuts: 99      125   46,81%
      0     0       25,0212    75       47,0000     Cuts: 115      209   46,76%
      0     0       25,1043    75       47,0000      Cuts: 76      258   46,59%
      0     0       25,3241    75       47,0000      Cuts: 70      313   46,12%
      0     0       29,8415    75       47,0000     Cuts: 109      390   36,51%
      0     0       30,7160    75       47,0000      Cuts: 91      431   34,65%
      0     0       31,1059    75       47,0000      Cuts: 52      464   33,82%
      0     0       31,3237    75       47,0000      Cuts: 29      486   33,35%
      0     0       31,6507    75       47,0000      Cuts: 65      520   32,66%
      0     0       31,8116    75       47,0000      Cuts: 32      551   32,32%
      0     0       32,1037    75       47,0000      Cuts: 46      579   31,69%
      0     0       32,2698    75       47,0000      Cuts: 41      623   31,34%
      0     0       32,4577    75       47,0000      Cuts: 41      650   30,94%
      0     0       32,5182    75       47,0000      Cuts: 49      695   30,81%
      0     0       32,6629    75       47,0000      Cuts: 37      724   30,50%
      0     0       32,9084    75       47,0000      Cuts: 37      761   29,98%
      0     0       32,9731    75       47,0000      Cuts: 42      803   29,84%
      0     0       33,0267    75       47,0000      Cuts: 44      828   29,73%
      0     0       33,0873    75       47,0000      Cuts: 42      876   29,60%
      0     0       33,1309    75       47,0000      Cuts: 38      909   29,51%
      0     0       33,1629    75       47,0000      Cuts: 29      939   29,44%
      0     0       33,1932    75       47,0000      Cuts: 23      966   29,38%
      0     0       33,2598    75       47,0000      Cuts: 50     1002   29,23%
      0     0       33,3008    75       47,0000      Cuts: 45     1036   29,15%
      0     0       33,3435    75       47,0000      Cuts: 31     1061   29,06%
      0     0       33,3656    75       47,0000      Cuts: 39     1096   29,01%
      0     0       33,3938    75       47,0000      Cuts: 26     1124   28,95%
      0     0       33,4131    75       47,0000      Cuts: 29     1149   28,91%
*     0+    0                           43,0000       33,4131            22,30%
      0     0       33,4328    75       43,0000      Cuts: 13     1171   22,25%
      0     0       33,4512    75       43,0000      Cuts: 22     1194   22,21%
      0     0       33,4740    75       43,0000      Cuts: 17     1220   22,15%
      0     0       33,5156    75       43,0000      Cuts: 23     1253   22,06%
      0     0       33,5257    75       43,0000      Cuts: 21     1265   22,03%
      0     2       33,5257   104       43,0000       33,5257     1265   22,03%
Elapsed time = 0,40 sec. (132,72 ticks, tree = 0,02 MB, solutions = 6)

Clique cuts applied:  19
Cover cuts applied:  59
Mixed integer rounding cuts applied:  20
Zero-half cuts applied:  40

Root node processing (before b&c):
  Real time             =    0,38 sec. (132,49 ticks)
Parallel b&c, 16 threads:
  Real time             =    0,11 sec. (14,13 ticks)
  Sync time (average)   =    0,09 sec.
  Wait time (average)   =    0,00 sec.
                          ------------
Total (root+branch&cut) =    0,50 sec. (146,62 ticks)
